200169
50,48,38,93,77,104,100,53,94,35,70,10,66,37,103,2,69,36,17,95,59,42,78,90,14,46,102,31,62,6,83,52,71,32,72,40,84,47,74,3,34,98,18,99,81,1,45,76,16,20,89,19,39,5,63,15,55,68,97,41,30,12,87,64,54,29,28,4,51,96,105,7,11,92,79,22,91,8,56,57,0,43,9,58,65,88,75,27,26,86,23,73,101,13,60,49,25,82,33,67,80,44,24,21,85,61